891524
69,31,59,30,61,92,48,9,55,17,68,74,5,40,76,29,95,20,19,8,32,56,46,94,65,6,3,44,85,80,13,38,91,83,72,24,77,50,78,28,39,93,25,16,11,18,58,89,23,42,21,51,64,53,97,22,10,27,70,33,45,66,60,57,81,15,14,82,26,1,63,4,2,84,88,7,52,96,41,34,49,87,37,75,86,79,67,98,35,71,90,43,54,62,12,73,36,47,0
